This is Ipopt version 3.12.4, running with linear solver mumps.
NOTE: Other linear solvers might be more efficient (see Ipopt documentation).

Number of nonzeros in equality constraint Jacobian...:        0
Number of nonzeros in inequality constraint Jacobian.:        0
Number of nonzeros in Lagrangian Hessian.............:        0

Total number of variables............................:        3
                     variables with only lower bounds:        0
                variables with lower and upper bounds:        0
                     variables with only upper bounds:        0
Total number of equality constraints.................:        0
Total number of inequality constraints...............:        0
        inequality constraints with only lower bounds:        0
   inequality constraints with lower and upper bounds:        0
        inequality constraints with only upper bounds:        0

iter    objective    inf_pr   inf_du lg(mu)  ||d||  lg(rg) alpha_du alpha_pr  ls
   0  7.5030869e-07 0.00e+00 1.24e-05   0.0 0.00e+00    -  0.00e+00 0.00e+00   0
   1  7.5030411e-07 0.00e+00 1.24e-05 -11.0 1.24e-05    -  1.00e+00 1.00e+00f  1
   2  4.0707054e-07 0.00e+00 7.86e-06 -11.0 2.74e+00    -  1.00e+00 1.00e+00f  1
   3  3.6490996e-07 0.00e+00 1.10e-06 -11.0 5.86e-01    -  1.00e+00 1.00e+00f  1
   4  3.6102436e-07 0.00e+00 1.14e-07 -11.0 3.20e-01    -  1.00e+00 1.00e+00f  1
   5  3.6101485e-07 0.00e+00 3.43e-08 -11.0 2.63e-02    -  1.00e+00 1.00e+00f  1
   6  3.6101479e-07 0.00e+00 3.22e-08 -11.0 7.20e-03    -  1.00e+00 1.00e+00f  1
   7  3.6101277e-07 0.00e+00 1.25e-10 -11.0 3.47e-03    -  1.00e+00 1.00e+00f  1

Number of Iterations....: 7

                                   (scaled)                 (unscaled)
Objective...............:   3.6101276924414180e-07    3.6101276924414180e-07
Dual infeasibility......:   1.2453502424935420e-10    1.2453502424935420e-10
Constraint violation....:   0.0000000000000000e+00    0.0000000000000000e+00
Complementarity.........:   0.0000000000000000e+00    0.0000000000000000e+00
Overall NLP error.......:   1.2453502424935420e-10    1.2453502424935420e-10


Number of objective function evaluations             = 8
Number of objective gradient evaluations             = 8
Number of equality constraint evaluations            = 0
Number of inequality constraint evaluations          = 0
Number of equality constraint Jacobian evaluations   = 0
Number of inequality constraint Jacobian evaluations = 0
Number of Lagrangian Hessian evaluations             = 0
Total CPU secs in IPOPT (w/o function evaluations)   =      0.008
Total CPU secs in NLP function evaluations           =      0.036

EXIT: Optimal Solution Found.
